sing20140530.12
TTAA  80121 48698
99005 28247 26005 00055 29858 13501 92744 23630 21011
85479 18817 22508 70125 09618 23505 50585 03359 09515
40758 13759 10012 30971 28334 12513 25099 38333 09008
20248 50934 12003 15429 66330 29005 10663 80732 08046
88999
77999=
TTCC  8012/ 48698=
TTDD  8012/ 48698
11968 79935 22945 77731 33916 77728 44894 78734 55831
76332
21212 11967 09025 22937 11025 33924 12022 44910 12522
55896 11017 66869 05009 77853 35007 88839 35016 99831
34019=
